p cnf 1377 2447
13 0
119 0
144 0
169 0
310 0
339 0
380 0
395 0
410 0
415 0
448 0
514 0
535 0
576 0
592 0
627 0
683 0
1 2 3 4 5 6 7 8 9 0
10 11 12 13 14 15 16 17 18 0
19 20 21 22 23 24 25 26 27 0
28 29 30 31 32 33 34 35 36 0
37 38 39 40 41 42 43 44 45 0
46 47 48 49 50 51 52 53 54 0
55 56 57 58 59 60 61 62 63 0
64 65 66 67 68 69 70 71 72 0
73 74 75 76 77 78 79 80 81 0
82 83 84 85 86 87 88 89 90 0
91 92 93 94 95 96 97 98 99 0
100 101 102 103 104 105 106 107 108 0
109 110 111 112 113 114 115 116 117 0
118 119 120 121 122 123 124 125 126 0
127 128 129 130 131 132 133 134 135 0
136 137 138 139 140 141 142 143 144 0
145 146 147 148 149 150 151 152 153 0
154 155 156 157 158 159 160 161 162 0
163 164 165 166 167 168 169 170 171 0
172 173 174 175 176 177 178 179 180 0
181 182 183 184 185 186 187 188 189 0
190 191 192 193 194 195 196 197 198 0
199 200 201 202 203 204 205 206 207 0
208 209 210 211 212 213 214 215 216 0
217 218 219 220 221 222 223 224 225 0
226 227 228 229 230 231 232 233 234 0
235 236 237 238 239 240 241 242 243 0
244 245 246 247 248 249 250 251 252 0
253 254 255 256 257 258 259 260 261 0
262 263 264 265 266 267 268 269 270 0
271 272 273 274 275 276 277 278 279 0
280 281 282 283 284 285 286 287 288 0
289 290 291 292 293 294 295 296 297 0
298 299 300 301 302 303 304 305 306 0
307 308 309 310 311 312 313 314 315 0
316 317 318 319 320 321 322 323 324 0
325 326 327 328 329 330 331 332 333 0
334 335 336 337 338 339 340 341 342 0
343 344 345 346 347 348 349 350 351 0
352 353 354 355 356 357 358 359 360 0
361 362 363 364 365 366 367 368 369 0
370 371 372 373 374 375 376 377 378 0
379 380 381 382 383 384 385 386 387 0
388 389 390 391 392 393 394 395 396 0
397 398 399 400 401 402 403 404 405 0
406 407 408 409 410 411 412 413 414 0
415 416 417 418 419 420 421 422 423 0
424 425 426 427 428 429 430 431 432 0
433 434 435 436 437 438 439 440 441 0
442 443 444 445 446 447 448 449 450 0
451 452 453 454 455 456 457 458 459 0
460 461 462 463 464 465 466 467 468 0
469 470 471 472 473 474 475 476 477 0
478 479 480 481 482 483 484 485 486 0
487 488 489 490 491 492 493 494 495 0
496 497 498 499 500 501 502 503 504 0
505 506 507 508 509 510 511 512 513 0
514 515 516 517 518 519 520 521 522 0
523 524 525 526 527 528 529 530 531 0
532 533 534 535 536 537 538 539 540 0
541 542 543 544 545 546 547 548 549 0
550 551 552 553 554 555 556 557 558 0
559 560 561 562 563 564 565 566 567 0
568 569 570 571 572 573 574 575 576 0
577 578 579 580 581 582 583 584 585 0
586 587 588 589 590 591 592 593 594 0
595 596 597 598 599 600 601 602 603 0
604 605 606 607 608 609 610 611 612 0
613 614 615 616 617 618 619 620 621 0
622 623 624 625 626 627 628 629 630 0
631 632 633 634 635 636 637 638 639 0
640 641 642 643 644 645 646 647 648 0
649 650 651 652 653 654 655 656 657 0
658 659 660 661 662 663 664 665 666 0
667 668 669 670 671 672 673 674 675 0
676 677 678 679 680 681 682 683 684 0
685 686 687 688 689 690 691 692 693 0
694 695 696 697 698 699 700 701 702 0
703 704 705 706 707 708 709 710 711 0
712 713 714 715 716 717 718 719 720 0
721 722 723 724 725 726 727 728 729 0
-730 729 0
2 -729 730 0
-2 729 0
-2 -730 0
-731 730 0
3 -730 731 0
-3 730 0
-3 -731 0
-732 731 0
4 -731 732 0
-4 731 0
-4 -732 0
-733 732 0
5 -732 733 0
-5 732 0
-5 -733 0
-734 733 0
6 -733 734 0
-6 733 0
-6 -734 0
-735 734 0
7 -734 735 0
-7 734 0
-7 -735 0
-736 735 0
8 -735 736 0
-8 735 0
-8 -736 0
2 3 4 5 6 7 8 0
-738 737 0
11 -737 738 0
-11 737 0
-11 -738 0
-739 738 0
12 -738 739 0
-12 738 0
-12 -739 0
-740 739 0
13 -739 740 0
-13 739 0
-13 -740 0
-741 740 0
14 -740 741 0
-14 740 0
-14 -741 0
-742 741 0
15 -741 742 0
-15 741 0
-15 -742 0
-743 742 0
16 -742 743 0
-16 742 0
-16 -743 0
-744 743 0
17 -743 744 0
-17 743 0
-17 -744 0
11 12 13 14 15 16 17 0
-746 745 0
20 -745 746 0
-20 745 0
-20 -746 0
-747 746 0
21 -746 747 0
-21 746 0
-21 -747 0
-748 747 0
22 -747 748 0
-22 747 0
-22 -748 0
-749 748 0
23 -748 749 0
-23 748 0
-23 -749 0
-750 749 0
24 -749 750 0
-24 749 0
-24 -750 0
-751 750 0
25 -750 751 0
-25 750 0
-25 -751 0
-752 751 0
26 -751 752 0
-26 751 0
-26 -752 0
20 21 22 23 24 25 26 0
-754 753 0
29 -753 754 0
-29 753 0
-29 -754 0
-755 754 0
30 -754 755 0
-30 754 0
-30 -755 0
-756 755 0
31 -755 756 0
-31 755 0
-31 -756 0
-757 756 0
32 -756 757 0
-32 756 0
-32 -757 0
-758 757 0
33 -757 758 0
-33 757 0
-33 -758 0
-759 758 0
34 -758 759 0
-34 758 0
-34 -759 0
-760 759 0
35 -759 760 0
-35 759 0
-35 -760 0
29 30 31 32 33 34 35 0
-762 761 0
38 -761 762 0
-38 761 0
-38 -762 0
-763 762 0
39 -762 763 0
-39 762 0
-39 -763 0
-764 763 0
40 -763 764 0
-40 763 0
-40 -764 0
-765 764 0
41 -764 765 0
-41 764 0
-41 -765 0
-766 765 0
42 -765 766 0
-42 765 0
-42 -766 0
-767 766 0
43 -766 767 0
-43 766 0
-43 -767 0
-768 767 0
44 -767 768 0
-44 767 0
-44 -768 0
38 39 40 41 42 43 44 0
-770 769 0
47 -769 770 0
-47 769 0
-47 -770 0
-771 770 0
48 -770 771 0
-48 770 0
-48 -771 0
-772 771 0
49 -771 772 0
-49 771 0
-49 -772 0
-773 772 0
50 -772 773 0
-50 772 0
-50 -773 0
-774 773 0
51 -773 774 0
-51 773 0
-51 -774 0
-775 774 0
52 -774 775 0
-52 774 0
-52 -775 0
-776 775 0
53 -775 776 0
-53 775 0
-53 -776 0
47 48 49 50 51 52 53 0
-778 777 0
56 -777 778 0
-56 777 0
-56 -778 0
-779 778 0
57 -778 779 0
-57 778 0
-57 -779 0
-780 779 0
58 -779 780 0
-58 779 0
-58 -780 0
-781 780 0
59 -780 781 0
-59 780 0
-59 -781 0
-782 781 0
60 -781 782 0
-60 781 0
-60 -782 0
-783 782 0
61 -782 783 0
-61 782 0
-61 -783 0
-784 783 0
62 -783 784 0
-62 783 0
-62 -784 0
56 57 58 59 60 61 62 0
-786 785 0
65 -785 786 0
-65 785 0
-65 -786 0
-787 786 0
66 -786 787 0
-66 786 0
-66 -787 0
-788 787 0
67 -787 788 0
-67 787 0
-67 -788 0
-789 788 0
68 -788 789 0
-68 788 0
-68 -789 0
-790 789 0
69 -789 790 0
-69 789 0
-69 -790 0
-791 790 0
70 -790 791 0
-70 790 0
-70 -791 0
-792 791 0
71 -791 792 0
-71 791 0
-71 -792 0
65 66 67 68 69 70 71 0
-794 793 0
74 -793 794 0
-74 793 0
-74 -794 0
-795 794 0
75 -794 795 0
-75 794 0
-75 -795 0
-796 795 0
76 -795 796 0
-76 795 0
-76 -796 0
-797 796 0
77 -796 797 0
-77 796 0
-77 -797 0
-798 797 0
78 -797 798 0
-78 797 0
-78 -798 0
-799 798 0
79 -798 799 0
-79 798 0
-79 -799 0
-800 799 0
80 -799 800 0
-80 799 0
-80 -800 0
74 75 76 77 78 79 80 0
-802 801 0
83 -801 802 0
-83 801 0
-83 -802 0
-803 802 0
84 -802 803 0
-84 802 0
-84 -803 0
-804 803 0
85 -803 804 0
-85 803 0
-85 -804 0
-805 804 0
86 -804 805 0
-86 804 0
-86 -805 0
-806 805 0
87 -805 806 0
-87 805 0
-87 -806 0
-807 806 0
88 -806 807 0
-88 806 0
-88 -807 0
-808 807 0
89 -807 808 0
-89 807 0
-89 -808 0
83 84 85 86 87 88 89 0
-810 809 0
92 -809 810 0
-92 809 0
-92 -810 0
-811 810 0
93 -810 811 0
-93 810 0
-93 -811 0
-812 811 0
94 -811 812 0
-94 811 0
-94 -812 0
-813 812 0
95 -812 813 0
-95 812 0
-95 -813 0
-814 813 0
96 -813 814 0
-96 813 0
-96 -814 0
-815 814 0
97 -814 815 0
-97 814 0
-97 -815 0
-816 815 0
98 -815 816 0
-98 815 0
-98 -816 0
92 93 94 95 96 97 98 0
-818 817 0
101 -817 818 0
-101 817 0
-101 -818 0
-819 818 0
102 -818 819 0
-102 818 0
-102 -819 0
-820 819 0
103 -819 820 0
-103 819 0
-103 -820 0
-821 820 0
104 -820 821 0
-104 820 0
-104 -821 0
-822 821 0
105 -821 822 0
-105 821 0
-105 -822 0
-823 822 0
106 -822 823 0
-106 822 0
-106 -823 0
-824 823 0
107 -823 824 0
-107 823 0
-107 -824 0
101 102 103 104 105 106 107 0
-826 825 0
110 -825 826 0
-110 825 0
-110 -826 0
-827 826 0
111 -826 827 0
-111 826 0
-111 -827 0
-828 827 0
112 -827 828 0
-112 827 0
-112 -828 0
-829 828 0
113 -828 829 0
-113 828 0
-113 -829 0
-830 829 0
114 -829 830 0
-114 829 0
-114 -830 0
-831 830 0
115 -830 831 0
-115 830 0
-115 -831 0
-832 831 0
116 -831 832 0
-116 831 0
-116 -832 0
110 111 112 113 114 115 116 0
-834 833 0
119 -833 834 0
-119 833 0
-119 -834 0
-835 834 0
120 -834 835 0
-120 834 0
-120 -835 0
-836 835 0
121 -835 836 0
-121 835 0
-121 -836 0
-837 836 0
122 -836 837 0
-122 836 0
-122 -837 0
-838 837 0
123 -837 838 0
-123 837 0
-123 -838 0
-839 838 0
124 -838 839 0
-124 838 0
-124 -839 0
-840 839 0
125 -839 840 0
-125 839 0
-125 -840 0
119 120 121 122 123 124 125 0
-842 841 0
128 -841 842 0
-128 841 0
-128 -842 0
-843 842 0
129 -842 843 0
-129 842 0
-129 -843 0
-844 843 0
130 -843 844 0
-130 843 0
-130 -844 0
-845 844 0
131 -844 845 0
-131 844 0
-131 -845 0
-846 845 0
132 -845 846 0
-132 845 0
-132 -846 0
-847 846 0
133 -846 847 0
-133 846 0
-133 -847 0
-848 847 0
134 -847 848 0
-134 847 0
-134 -848 0
128 129 130 131 132 133 134 0
-850 849 0
137 -849 850 0
-137 849 0
-137 -850 0
-851 850 0
138 -850 851 0
-138 850 0
-138 -851 0
-852 851 0
139 -851 852 0
-139 851 0
-139 -852 0
-853 852 0
140 -852 853 0
-140 852 0
-140 -853 0
-854 853 0
141 -853 854 0
-141 853 0
-141 -854 0
-855 854 0
142 -854 855 0
-142 854 0
-142 -855 0
-856 855 0
143 -855 856 0
-143 855 0
-143 -856 0
137 138 139 140 141 142 143 0
-858 857 0
146 -857 858 0
-146 857 0
-146 -858 0
-859 858 0
147 -858 859 0
-147 858 0
-147 -859 0
-860 859 0
148 -859 860 0
-148 859 0
-148 -860 0
-861 860 0
149 -860 861 0
-149 860 0
-149 -861 0
-862 861 0
150 -861 862 0
-150 861 0
-150 -862 0
-863 862 0
151 -862 863 0
-151 862 0
-151 -863 0
-864 863 0
152 -863 864 0
-152 863 0
-152 -864 0
146 147 148 149 150 151 152 0
-866 865 0
155 -865 866 0
-155 865 0
-155 -866 0
-867 866 0
156 -866 867 0
-156 866 0
-156 -867 0
-868 867 0
157 -867 868 0
-157 867 0
-157 -868 0
-869 868 0
158 -868 869 0
-158 868 0
-158 -869 0
-870 869 0
159 -869 870 0
-159 869 0
-159 -870 0
-871 870 0
160 -870 871 0
-160 870 0
-160 -871 0
-872 871 0
161 -871 872 0
-161 871 0
-161 -872 0
155 156 157 158 159 160 161 0
-874 873 0
164 -873 874 0
-164 873 0
-164 -874 0
-875 874 0
165 -874 875 0
-165 874 0
-165 -875 0
-876 875 0
166 -875 876 0
-166 875 0
-166 -876 0
-877 876 0
167 -876 877 0
-167 876 0
-167 -877 0
-878 877 0
168 -877 878 0
-168 877 0
-168 -878 0
-879 878 0
169 -878 879 0
-169 878 0
-169 -879 0
-880 879 0
170 -879 880 0
-170 879 0
-170 -880 0
164 165 166 167 168 169 170 0
-882 881 0
173 -881 882 0
-173 881 0
-173 -882 0
-883 882 0
174 -882 883 0
-174 882 0
-174 -883 0
-884 883 0
175 -883 884 0
-175 883 0
-175 -884 0
-885 884 0
176 -884 885 0
-176 884 0
-176 -885 0
-886 885 0
177 -885 886 0
-177 885 0
-177 -886 0
-887 886 0
178 -886 887 0
-178 886 0
-178 -887 0
-888 887 0
179 -887 888 0
-179 887 0
-179 -888 0
173 174 175 176 177 178 179 0
-890 889 0
182 -889 890 0
-182 889 0
-182 -890 0
-891 890 0
183 -890 891 0
-183 890 0
-183 -891 0
-892 891 0
184 -891 892 0
-184 891 0
-184 -892 0
-893 892 0
185 -892 893 0
-185 892 0
-185 -893 0
-894 893 0
186 -893 894 0
-186 893 0
-186 -894 0
-895 894 0
187 -894 895 0
-187 894 0
-187 -895 0
-896 895 0
188 -895 896 0
-188 895 0
-188 -896 0
182 183 184 185 186 187 188 0
-898 897 0
191 -897 898 0
-191 897 0
-191 -898 0
-899 898 0
192 -898 899 0
-192 898 0
-192 -899 0
-900 899 0
193 -899 900 0
-193 899 0
-193 -900 0
-901 900 0
194 -900 901 0
-194 900 0
-194 -901 0
-902 901 0
195 -901 902 0
-195 901 0
-195 -902 0
-903 902 0
196 -902 903 0
-196 902 0
-196 -903 0
-904 903 0
197 -903 904 0
-197 903 0
-197 -904 0
191 192 193 194 195 196 197 0
-906 905 0
200 -905 906 0
-200 905 0
-200 -906 0
-907 906 0
201 -906 907 0
-201 906 0
-201 -907 0
-908 907 0
202 -907 908 0
-202 907 0
-202 -908 0
-909 908 0
203 -908 909 0
-203 908 0
-203 -909 0
-910 909 0
204 -909 910 0
-204 909 0
-204 -910 0
-911 910 0
205 -910 911 0
-205 910 0
-205 -911 0
-912 911 0
206 -911 912 0
-206 911 0
-206 -912 0
200 201 202 203 204 205 206 0
-914 913 0
209 -913 914 0
-209 913 0
-209 -914 0
-915 914 0
210 -914 915 0
-210 914 0
-210 -915 0
-916 915 0
211 -915 916 0
-211 915 0
-211 -916 0
-917 916 0
212 -916 917 0
-212 916 0
-212 -917 0
-918 917 0
213 -917 918 0
-213 917 0
-213 -918 0
-919 918 0
214 -918 919 0
-214 918 0
-214 -919 0
-920 919 0
215 -919 920 0
-215 919 0
-215 -920 0
209 210 211 212 213 214 215 0
-922 921 0
218 -921 922 0
-218 921 0
-218 -922 0
-923 922 0
219 -922 923 0
-219 922 0
-219 -923 0
-924 923 0
220 -923 924 0
-220 923 0
-220 -924 0
-925 924 0
221 -924 925 0
-221 924 0
-221 -925 0
-926 925 0
222 -925 926 0
-222 925 0
-222 -926 0
-927 926 0
223 -926 927 0
-223 926 0
-223 -927 0
-928 927 0
224 -927 928 0
-224 927 0
-224 -928 0
218 219 220 221 222 223 224 0
-930 929 0
227 -929 930 0
-227 929 0
-227 -930 0
-931 930 0
228 -930 931 0
-228 930 0
-228 -931 0
-932 931 0
229 -931 932 0
-229 931 0
-229 -932 0
-933 932 0
230 -932 933 0
-230 932 0
-230 -933 0
-934 933 0
231 -933 934 0
-231 933 0
-231 -934 0
-935 934 0
232 -934 935 0
-232 934 0
-232 -935 0
-936 935 0
233 -935 936 0
-233 935 0
-233 -936 0
227 228 229 230 231 232 233 0
-938 937 0
236 -937 938 0
-236 937 0
-236 -938 0
-939 938 0
237 -938 939 0
-237 938 0
-237 -939 0
-940 939 0
238 -939 940 0
-238 939 0
-238 -940 0
-941 940 0
239 -940 941 0
-239 940 0
-239 -941 0
-942 941 0
240 -941 942 0
-240 941 0
-240 -942 0
-943 942 0
241 -942 943 0
-241 942 0
-241 -943 0
-944 943 0
242 -943 944 0
-242 943 0
-242 -944 0
236 237 238 239 240 241 242 0
-946 945 0
245 -945 946 0
-245 945 0
-245 -946 0
-947 946 0
246 -946 947 0
-246 946 0
-246 -947 0
-948 947 0
247 -947 948 0
-247 947 0
-247 -948 0
-949 948 0
248 -948 949 0
-248 948 0
-248 -949 0
-950 949 0
249 -949 950 0
-249 949 0
-249 -950 0
-951 950 0
250 -950 951 0
-250 950 0
-250 -951 0
-952 951 0
251 -951 952 0
-251 951 0
-251 -952 0
245 246 247 248 249 250 251 0
-954 953 0
254 -953 954 0
-254 953 0
-254 -954 0
-955 954 0
255 -954 955 0
-255 954 0
-255 -955 0
-956 955 0
256 -955 956 0
-256 955 0
-256 -956 0
-957 956 0
257 -956 957 0
-257 956 0
-257 -957 0
-958 957 0
258 -957 958 0
-258 957 0
-258 -958 0
-959 958 0
259 -958 959 0
-259 958 0
-259 -959 0
-960 959 0
260 -959 960 0
-260 959 0
-260 -960 0
254 255 256 257 258 259 260 0
-962 961 0
263 -961 962 0
-263 961 0
-263 -962 0
-963 962 0
264 -962 963 0
-264 962 0
-264 -963 0
-964 963 0
265 -963 964 0
-265 963 0
-265 -964 0
-965 964 0
266 -964 965 0
-266 964 0
-266 -965 0
-966 965 0
267 -965 966 0
-267 965 0
-267 -966 0
-967 966 0
268 -966 967 0
-268 966 0
-268 -967 0
-968 967 0
269 -967 968 0
-269 967 0
-269 -968 0
263 264 265 266 267 268 269 0
-970 969 0
272 -969 970 0
-272 969 0
-272 -970 0
-971 970 0
273 -970 971 0
-273 970 0
-273 -971 0
-972 971 0
274 -971 972 0
-274 971 0
-274 -972 0
-973 972 0
275 -972 973 0
-275 972 0
-275 -973 0
-974 973 0
276 -973 974 0
-276 973 0
-276 -974 0
-975 974 0
277 -974 975 0
-277 974 0
-277 -975 0
-976 975 0
278 -975 976 0
-278 975 0
-278 -976 0
272 273 274 275 276 277 278 0
-978 977 0
281 -977 978 0
-281 977 0
-281 -978 0
-979 978 0
282 -978 979 0
-282 978 0
-282 -979 0
-980 979 0
283 -979 980 0
-283 979 0
-283 -980 0
-981 980 0
284 -980 981 0
-284 980 0
-284 -981 0
-982 981 0
285 -981 982 0
-285 981 0
-285 -982 0
-983 982 0
286 -982 983 0
-286 982 0
-286 -983 0
-984 983 0
287 -983 984 0
-287 983 0
-287 -984 0
281 282 283 284 285 286 287 0
-986 985 0
290 -985 986 0
-290 985 0
-290 -986 0
-987 986 0
291 -986 987 0
-291 986 0
-291 -987 0
-988 987 0
292 -987 988 0
-292 987 0
-292 -988 0
-989 988 0
293 -988 989 0
-293 988 0
-293 -989 0
-990 989 0
294 -989 990 0
-294 989 0
-294 -990 0
-991 990 0
295 -990 991 0
-295 990 0
-295 -991 0
-992 991 0
296 -991 992 0
-296 991 0
-296 -992 0
290 291 292 293 294 295 296 0
-994 993 0
299 -993 994 0
-299 993 0
-299 -994 0
-995 994 0
300 -994 995 0
-300 994 0
-300 -995 0
-996 995 0
301 -995 996 0
-301 995 0
-301 -996 0
-997 996 0
302 -996 997 0
-302 996 0
-302 -997 0
-998 997 0
303 -997 998 0
-303 997 0
-303 -998 0
-999 998 0
304 -998 999 0
-304 998 0
-304 -999 0
-1000 999 0
305 -999 1000 0
-305 999 0
-305 -1000 0
299 300 301 302 303 304 305 0
-1002 1001 0
308 -1001 1002 0
-308 1001 0
-308 -1002 0
-1003 1002 0
309 -1002 1003 0
-309 1002 0
-309 -1003 0
-1004 1003 0
310 -1003 1004 0
-310 1003 0
-310 -1004 0
-1005 1004 0
311 -1004 1005 0
-311 1004 0
-311 -1005 0
-1006 1005 0
312 -1005 1006 0
-312 1005 0
-312 -1006 0
-1007 1006 0
313 -1006 1007 0
-313 1006 0
-313 -1007 0
-1008 1007 0
314 -1007 1008 0
-314 1007 0
-314 -1008 0
308 309 310 311 312 313 314 0
-1010 1009 0
317 -1009 1010 0
-317 1009 0
-317 -1010 0
-1011 1010 0
318 -1010 1011 0
-318 1010 0
-318 -1011 0
-1012 1011 0
319 -1011 1012 0
-319 1011 0
-319 -1012 0
-1013 1012 0
320 -1012 1013 0
-320 1012 0
-320 -1013 0
-1014 1013 0
321 -1013 1014 0
-321 1013 0
-321 -1014 0
-1015 1014 0
322 -1014 1015 0
-322 1014 0
-322 -1015 0
-1016 1015 0
323 -1015 1016 0
-323 1015 0
-323 -1016 0
317 318 319 320 321 322 323 0
-1018 1017 0
326 -1017 1018 0
-326 1017 0
-326 -1018 0
-1019 1018 0
327 -1018 1019 0
-327 1018 0
-327 -1019 0
-1020 1019 0
328 -1019 1020 0
-328 1019 0
-328 -1020 0
-1021 1020 0
329 -1020 1021 0
-329 1020 0
-329 -1021 0
-1022 1021 0
330 -1021 1022 0
-330 1021 0
-330 -1022 0
-1023 1022 0
331 -1022 1023 0
-331 1022 0
-331 -1023 0
-1024 1023 0
332 -1023 1024 0
-332 1023 0
-332 -1024 0
326 327 328 329 330 331 332 0
-1026 1025 0
335 -1025 1026 0
-335 1025 0
-335 -1026 0
-1027 1026 0
336 -1026 1027 0
-336 1026 0
-336 -1027 0
-1028 1027 0
337 -1027 1028 0
-337 1027 0
-337 -1028 0
-1029 1028 0
338 -1028 1029 0
-338 1028 0
-338 -1029 0
-1030 1029 0
339 -1029 1030 0
-339 1029 0
-339 -1030 0
-1031 1030 0
340 -1030 1031 0
-340 1030 0
-340 -1031 0
-1032 1031 0
341 -1031 1032 0
-341 1031 0
-341 -1032 0
335 336 337 338 339 340 341 0
-1034 1033 0
344 -1033 1034 0
-344 1033 0
-344 -1034 0
-1035 1034 0
345 -1034 1035 0
-345 1034 0
-345 -1035 0
-1036 1035 0
346 -1035 1036 0
-346 1035 0
-346 -1036 0
-1037 1036 0
347 -1036 1037 0
-347 1036 0
-347 -1037 0
-1038 1037 0
348 -1037 1038 0
-348 1037 0
-348 -1038 0
-1039 1038 0
349 -1038 1039 0
-349 1038 0
-349 -1039 0
-1040 1039 0
350 -1039 1040 0
-350 1039 0
-350 -1040 0
344 345 346 347 348 349 350 0
-1042 1041 0
353 -1041 1042 0
-353 1041 0
-353 -1042 0
-1043 1042 0
354 -1042 1043 0
-354 1042 0
-354 -1043 0
-1044 1043 0
355 -1043 1044 0
-355 1043 0
-355 -1044 0
-1045 1044 0
356 -1044 1045 0
-356 1044 0
-356 -1045 0
-1046 1045 0
357 -1045 1046 0
-357 1045 0
-357 -1046 0
-1047 1046 0
358 -1046 1047 0
-358 1046 0
-358 -1047 0
-1048 1047 0
359 -1047 1048 0
-359 1047 0
-359 -1048 0
353 354 355 356 357 358 359 0
-1050 1049 0
362 -1049 1050 0
-362 1049 0
-362 -1050 0
-1051 1050 0
363 -1050 1051 0
-363 1050 0
-363 -1051 0
-1052 1051 0
364 -1051 1052 0
-364 1051 0
-364 -1052 0
-1053 1052 0
365 -1052 1053 0
-365 1052 0
-365 -1053 0
-1054 1053 0
366 -1053 1054 0
-366 1053 0
-366 -1054 0
-1055 1054 0
367 -1054 1055 0
-367 1054 0
-367 -1055 0
-1056 1055 0
368 -1055 1056 0
-368 1055 0
-368 -1056 0
362 363 364 365 366 367 368 0
-1058 1057 0
371 -1057 1058 0
-371 1057 0
-371 -1058 0
-1059 1058 0
372 -1058 1059 0
-372 1058 0
-372 -1059 0
-1060 1059 0
373 -1059 1060 0
-373 1059 0
-373 -1060 0
-1061 1060 0
374 -1060 1061 0
-374 1060 0
-374 -1061 0
-1062 1061 0
375 -1061 1062 0
-375 1061 0
-375 -1062 0
-1063 1062 0
376 -1062 1063 0
-376 1062 0
-376 -1063 0
-1064 1063 0
377 -1063 1064 0
-377 1063 0
-377 -1064 0
371 372 373 374 375 376 377 0
-1066 1065 0
380 -1065 1066 0
-380 1065 0
-380 -1066 0
-1067 1066 0
381 -1066 1067 0
-381 1066 0
-381 -1067 0
-1068 1067 0
382 -1067 1068 0
-382 1067 0
-382 -1068 0
-1069 1068 0
383 -1068 1069 0
-383 1068 0
-383 -1069 0
-1070 1069 0
384 -1069 1070 0
-384 1069 0
-384 -1070 0
-1071 1070 0
385 -1070 1071 0
-385 1070 0
-385 -1071 0
-1072 1071 0
386 -1071 1072 0
-386 1071 0
-386 -1072 0
380 381 382 383 384 385 386 0
-1074 1073 0
389 -1073 1074 0
-389 1073 0
-389 -1074 0
-1075 1074 0
390 -1074 1075 0
-390 1074 0
-390 -1075 0
-1076 1075 0
391 -1075 1076 0
-391 1075 0
-391 -1076 0
-1077 1076 0
392 -1076 1077 0
-392 1076 0
-392 -1077 0
-1078 1077 0
393 -1077 1078 0
-393 1077 0
-393 -1078 0
-1079 1078 0
394 -1078 1079 0
-394 1078 0
-394 -1079 0
-1080 1079 0
395 -1079 1080 0
-395 1079 0
-395 -1080 0
389 390 391 392 393 394 395 0
-1082 1081 0
398 -1081 1082 0
-398 1081 0
-398 -1082 0
-1083 1082 0
399 -1082 1083 0
-399 1082 0
-399 -1083 0
-1084 1083 0
400 -1083 1084 0
-400 1083 0
-400 -1084 0
-1085 1084 0
401 -1084 1085 0
-401 1084 0
-401 -1085 0
-1086 1085 0
402 -1085 1086 0
-402 1085 0
-402 -1086 0
-1087 1086 0
403 -1086 1087 0
-403 1086 0
-403 -1087 0
-1088 1087 0
404 -1087 1088 0
-404 1087 0
-404 -1088 0
398 399 400 401 402 403 404 0
-1090 1089 0
407 -1089 1090 0
-407 1089 0
-407 -1090 0
-1091 1090 0
408 -1090 1091 0
-408 1090 0
-408 -1091 0
-1092 1091 0
409 -1091 1092 0
-409 1091 0
-409 -1092 0
-1093 1092 0
410 -1092 1093 0
-410 1092 0
-410 -1093 0
-1094 1093 0
411 -1093 1094 0
-411 1093 0
-411 -1094 0
-1095 1094 0
412 -1094 1095 0
-412 1094 0
-412 -1095 0
-1096 1095 0
413 -1095 1096 0
-413 1095 0
-413 -1096 0
407 408 409 410 411 412 413 0
-1098 1097 0
416 -1097 1098 0
-416 1097 0
-416 -1098 0
-1099 1098 0
417 -1098 1099 0
-417 1098 0
-417 -1099 0
-1100 1099 0
418 -1099 1100 0
-418 1099 0
-418 -1100 0
-1101 1100 0
419 -1100 1101 0
-419 1100 0
-419 -1101 0
-1102 1101 0
420 -1101 1102 0
-420 1101 0
-420 -1102 0
-1103 1102 0
421 -1102 1103 0
-421 1102 0
-421 -1103 0
-1104 1103 0
422 -1103 1104 0
-422 1103 0
-422 -1104 0
416 417 418 419 420 421 422 0
-1106 1105 0
425 -1105 1106 0
-425 1105 0
-425 -1106 0
-1107 1106 0
426 -1106 1107 0
-426 1106 0
-426 -1107 0
-1108 1107 0
427 -1107 1108 0
-427 1107 0
-427 -1108 0
-1109 1108 0
428 -1108 1109 0
-428 1108 0
-428 -1109 0
-1110 1109 0
429 -1109 1110 0
-429 1109 0
-429 -1110 0
-1111 1110 0
430 -1110 1111 0
-430 1110 0
-430 -1111 0
-1112 1111 0
431 -1111 1112 0
-431 1111 0
-431 -1112 0
425 426 427 428 429 430 431 0
-1114 1113 0
434 -1113 1114 0
-434 1113 0
-434 -1114 0
-1115 1114 0
435 -1114 1115 0
-435 1114 0
-435 -1115 0
-1116 1115 0
436 -1115 1116 0
-436 1115 0
-436 -1116 0
-1117 1116 0
437 -1116 1117 0
-437 1116 0
-437 -1117 0
-1118 1117 0
438 -1117 1118 0
-438 1117 0
-438 -1118 0
-1119 1118 0
439 -1118 1119 0
-439 1118 0
-439 -1119 0
-1120 1119 0
440 -1119 1120 0
-440 1119 0
-440 -1120 0
434 435 436 437 438 439 440 0
-1122 1121 0
443 -1121 1122 0
-443 1121 0
-443 -1122 0
-1123 1122 0
444 -1122 1123 0
-444 1122 0
-444 -1123 0
-1124 1123 0
445 -1123 1124 0
-445 1123 0
-445 -1124 0
-1125 1124 0
446 -1124 1125 0
-446 1124 0
-446 -1125 0
-1126 1125 0
447 -1125 1126 0
-447 1125 0
-447 -1126 0
-1127 1126 0
448 -1126 1127 0
-448 1126 0
-448 -1127 0
-1128 1127 0
449 -1127 1128 0
-449 1127 0
-449 -1128 0
443 444 445 446 447 448 449 0
-1130 1129 0
452 -1129 1130 0
-452 1129 0
-452 -1130 0
-1131 1130 0
453 -1130 1131 0
-453 1130 0
-453 -1131 0
-1132 1131 0
454 -1131 1132 0
-454 1131 0
-454 -1132 0
-1133 1132 0
455 -1132 1133 0
-455 1132 0
-455 -1133 0
-1134 1133 0
456 -1133 1134 0
-456 1133 0
-456 -1134 0
-1135 1134 0
457 -1134 1135 0
-457 1134 0
-457 -1135 0
-1136 1135 0
458 -1135 1136 0
-458 1135 0
-458 -1136 0
452 453 454 455 456 457 458 0
-1138 1137 0
461 -1137 1138 0
-461 1137 0
-461 -1138 0
-1139 1138 0
462 -1138 1139 0
-462 1138 0
-462 -1139 0
-1140 1139 0
463 -1139 1140 0
-463 1139 0
-463 -1140 0
-1141 1140 0
464 -1140 1141 0
-464 1140 0
-464 -1141 0
-1142 1141 0
465 -1141 1142 0
-465 1141 0
-465 -1142 0
-1143 1142 0
466 -1142 1143 0
-466 1142 0
-466 -1143 0
-1144 1143 0
467 -1143 1144 0
-467 1143 0
-467 -1144 0
461 462 463 464 465 466 467 0
-1146 1145 0
470 -1145 1146 0
-470 1145 0
-470 -1146 0
-1147 1146 0
471 -1146 1147 0
-471 1146 0
-471 -1147 0
-1148 1147 0
472 -1147 1148 0
-472 1147 0
-472 -1148 0
-1149 1148 0
473 -1148 1149 0
-473 1148 0
-473 -1149 0
-1150 1149 0
474 -1149 1150 0
-474 1149 0
-474 -1150 0
-1151 1150 0
475 -1150 1151 0
-475 1150 0
-475 -1151 0
-1152 1151 0
476 -1151 1152 0
-476 1151 0
-476 -1152 0
470 471 472 473 474 475 476 0
-1154 1153 0
479 -1153 1154 0
-479 1153 0
-479 -1154 0
-1155 1154 0
480 -1154 1155 0
-480 1154 0
-480 -1155 0
-1156 1155 0
481 -1155 1156 0
-481 1155 0
-481 -1156 0
-1157 1156 0
482 -1156 1157 0
-482 1156 0
-482 -1157 0
-1158 1157 0
483 -1157 1158 0
-483 1157 0
-483 -1158 0
-1159 1158 0
484 -1158 1159 0
-484 1158 0
-484 -1159 0
-1160 1159 0
485 -1159 1160 0
-485 1159 0
-485 -1160 0
479 480 481 482 483 484 485 0
-1162 1161 0
488 -1161 1162 0
-488 1161 0
-488 -1162 0
-1163 1162 0
489 -1162 1163 0
-489 1162 0
-489 -1163 0
-1164 1163 0
490 -1163 1164 0
-490 1163 0
-490 -1164 0
-1165 1164 0
491 -1164 1165 0
-491 1164 0
-491 -1165 0
-1166 1165 0
492 -1165 1166 0
-492 1165 0
-492 -1166 0
-1167 1166 0
493 -1166 1167 0
-493 1166 0
-493 -1167 0
-1168 1167 0
494 -1167 1168 0
-494 1167 0
-494 -1168 0
488 489 490 491 492 493 494 0
-1170 1169 0
497 -1169 1170 0
-497 1169 0
-497 -1170 0
-1171 1170 0
498 -1170 1171 0
-498 1170 0
-498 -1171 0
-1172 1171 0
499 -1171 1172 0
-499 1171 0
-499 -1172 0
-1173 1172 0
500 -1172 1173 0
-500 1172 0
-500 -1173 0
-1174 1173 0
501 -1173 1174 0
-501 1173 0
-501 -1174 0
-1175 1174 0
502 -1174 1175 0
-502 1174 0
-502 -1175 0
-1176 1175 0
503 -1175 1176 0
-503 1175 0
-503 -1176 0
497 498 499 500 501 502 503 0
-1178 1177 0
506 -1177 1178 0
-506 1177 0
-506 -1178 0
-1179 1178 0
507 -1178 1179 0
-507 1178 0
-507 -1179 0
-1180 1179 0
508 -1179 1180 0
-508 1179 0
-508 -1180 0
-1181 1180 0
509 -1180 1181 0
-509 1180 0
-509 -1181 0
-1182 1181 0
510 -1181 1182 0
-510 1181 0
-510 -1182 0
-1183 1182 0
511 -1182 1183 0
-511 1182 0
-511 -1183 0
-1184 1183 0
512 -1183 1184 0
-512 1183 0
-512 -1184 0
506 507 508 509 510 511 512 0
-1186 1185 0
515 -1185 1186 0
-515 1185 0
-515 -1186 0
-1187 1186 0
516 -1186 1187 0
-516 1186 0
-516 -1187 0
-1188 1187 0
517 -1187 1188 0
-517 1187 0
-517 -1188 0
-1189 1188 0
518 -1188 1189 0
-518 1188 0
-518 -1189 0
-1190 1189 0
519 -1189 1190 0
-519 1189 0
-519 -1190 0
-1191 1190 0
520 -1190 1191 0
-520 1190 0
-520 -1191 0
-1192 1191 0
521 -1191 1192 0
-521 1191 0
-521 -1192 0
515 516 517 518 519 520 521 0
-1194 1193 0
524 -1193 1194 0
-524 1193 0
-524 -1194 0
-1195 1194 0
525 -1194 1195 0
-525 1194 0
-525 -1195 0
-1196 1195 0
526 -1195 1196 0
-526 1195 0
-526 -1196 0
-1197 1196 0
527 -1196 1197 0
-527 1196 0
-527 -1197 0
-1198 1197 0
528 -1197 1198 0
-528 1197 0
-528 -1198 0
-1199 1198 0
529 -1198 1199 0
-529 1198 0
-529 -1199 0
-1200 1199 0
530 -1199 1200 0
-530 1199 0
-530 -1200 0
524 525 526 527 528 529 530 0
-1202 1201 0
533 -1201 1202 0
-533 1201 0
-533 -1202 0
-1203 1202 0
534 -1202 1203 0
-534 1202 0
-534 -1203 0
-1204 1203 0
535 -1203 1204 0
-535 1203 0
-535 -1204 0
-1205 1204 0
536 -1204 1205 0
-536 1204 0
-536 -1205 0
-1206 1205 0
537 -1205 1206 0
-537 1205 0
-537 -1206 0
-1207 1206 0
538 -1206 1207 0
-538 1206 0
-538 -1207 0
-1208 1207 0
539 -1207 1208 0
-539 1207 0
-539 -1208 0
533 534 535 536 537 538 539 0
-1210 1209 0
542 -1209 1210 0
-542 1209 0
-542 -1210 0
-1211 1210 0
543 -1210 1211 0
-543 1210 0
-543 -1211 0
-1212 1211 0
544 -1211 1212 0
-544 1211 0
-544 -1212 0
-1213 1212 0
545 -1212 1213 0
-545 1212 0
-545 -1213 0
-1214 1213 0
546 -1213 1214 0
-546 1213 0
-546 -1214 0
-1215 1214 0
547 -1214 1215 0
-547 1214 0
-547 -1215 0
-1216 1215 0
548 -1215 1216 0
-548 1215 0
-548 -1216 0
542 543 544 545 546 547 548 0
-1218 1217 0
551 -1217 1218 0
-551 1217 0
-551 -1218 0
-1219 1218 0
552 -1218 1219 0
-552 1218 0
-552 -1219 0
-1220 1219 0
553 -1219 1220 0
-553 1219 0
-553 -1220 0
-1221 1220 0
554 -1220 1221 0
-554 1220 0
-554 -1221 0
-1222 1221 0
555 -1221 1222 0
-555 1221 0
-555 -1222 0
-1223 1222 0
556 -1222 1223 0
-556 1222 0
-556 -1223 0
-1224 1223 0
557 -1223 1224 0
-557 1223 0
-557 -1224 0
551 552 553 554 555 556 557 0
-1226 1225 0
560 -1225 1226 0
-560 1225 0
-560 -1226 0
-1227 1226 0
561 -1226 1227 0
-561 1226 0
-561 -1227 0
-1228 1227 0
562 -1227 1228 0
-562 1227 0
-562 -1228 0
-1229 1228 0
563 -1228 1229 0
-563 1228 0
-563 -1229 0
-1230 1229 0
564 -1229 1230 0
-564 1229 0
-564 -1230 0
-1231 1230 0
565 -1230 1231 0
-565 1230 0
-565 -1231 0
-1232 1231 0
566 -1231 1232 0
-566 1231 0
-566 -1232 0
560 561 562 563 564 565 566 0
-1234 1233 0
569 -1233 1234 0
-569 1233 0
-569 -1234 0
-1235 1234 0
570 -1234 1235 0
-570 1234 0
-570 -1235 0
-1236 1235 0
571 -1235 1236 0
-571 1235 0
-571 -1236 0
-1237 1236 0
572 -1236 1237 0
-572 1236 0
-572 -1237 0
-1238 1237 0
573 -1237 1238 0
-573 1237 0
-573 -1238 0
-1239 1238 0
574 -1238 1239 0
-574 1238 0
-574 -1239 0
-1240 1239 0
575 -1239 1240 0
-575 1239 0
-575 -1240 0
569 570 571 572 573 574 575 0
-1242 1241 0
578 -1241 1242 0
-578 1241 0
-578 -1242 0
-1243 1242 0
579 -1242 1243 0
-579 1242 0
-579 -1243 0
-1244 1243 0
580 -1243 1244 0
-580 1243 0
-580 -1244 0
-1245 1244 0
581 -1244 1245 0
-581 1244 0
-581 -1245 0
-1246 1245 0
582 -1245 1246 0
-582 1245 0
-582 -1246 0
-1247 1246 0
583 -1246 1247 0
-583 1246 0
-583 -1247 0
-1248 1247 0
584 -1247 1248 0
-584 1247 0
-584 -1248 0
578 579 580 581 582 583 584 0
-1250 1249 0
587 -1249 1250 0
-587 1249 0
-587 -1250 0
-1251 1250 0
588 -1250 1251 0
-588 1250 0
-588 -1251 0
-1252 1251 0
589 -1251 1252 0
-589 1251 0
-589 -1252 0
-1253 1252 0
590 -1252 1253 0
-590 1252 0
-590 -1253 0
-1254 1253 0
591 -1253 1254 0
-591 1253 0
-591 -1254 0
-1255 1254 0
592 -1254 1255 0
-592 1254 0
-592 -1255 0
-1256 1255 0
593 -1255 1256 0
-593 1255 0
-593 -1256 0
587 588 589 590 591 592 593 0
-1258 1257 0
596 -1257 1258 0
-596 1257 0
-596 -1258 0
-1259 1258 0
597 -1258 1259 0
-597 1258 0
-597 -1259 0
-1260 1259 0
598 -1259 1260 0
-598 1259 0
-598 -1260 0
-1261 1260 0
599 -1260 1261 0
-599 1260 0
-599 -1261 0
-1262 1261 0
600 -1261 1262 0
-600 1261 0
-600 -1262 0
-1263 1262 0
601 -1262 1263 0
-601 1262 0
-601 -1263 0
-1264 1263 0
602 -1263 1264 0
-602 1263 0
-602 -1264 0
596 597 598 599 600 601 602 0
-1266 1265 0
605 -1265 1266 0
-605 1265 0
-605 -1266 0
-1267 1266 0
606 -1266 1267 0
-606 1266 0
-606 -1267 0
-1268 1267 0
607 -1267 1268 0
-607 1267 0
-607 -1268 0
-1269 1268 0
608 -1268 1269 0
-608 1268 0
-608 -1269 0
-1270 1269 0
609 -1269 1270 0
-609 1269 0
-609 -1270 0
-1271 1270 0
610 -1270 1271 0
-610 1270 0
-610 -1271 0
-1272 1271 0
611 -1271 1272 0
-611 1271 0
-611 -1272 0
605 606 607 608 609 610 611 0
-1274 1273 0
614 -1273 1274 0
-614 1273 0
-614 -1274 0
-1275 1274 0
615 -1274 1275 0
-615 1274 0
-615 -1275 0
-1276 1275 0
616 -1275 1276 0
-616 1275 0
-616 -1276 0
-1277 1276 0
617 -1276 1277 0
-617 1276 0
-617 -1277 0
-1278 1277 0
618 -1277 1278 0
-618 1277 0
-618 -1278 0
-1279 1278 0
619 -1278 1279 0
-619 1278 0
-619 -1279 0
-1280 1279 0
620 -1279 1280 0
-620 1279 0
-620 -1280 0
614 615 616 617 618 619 620 0
-1282 1281 0
623 -1281 1282 0
-623 1281 0
-623 -1282 0
-1283 1282 0
624 -1282 1283 0
-624 1282 0
-624 -1283 0
-1284 1283 0
625 -1283 1284 0
-625 1283 0
-625 -1284 0
-1285 1284 0
626 -1284 1285 0
-626 1284 0
-626 -1285 0
-1286 1285 0
627 -1285 1286 0
-627 1285 0
-627 -1286 0
-1287 1286 0
628 -1286 1287 0
-628 1286 0
-628 -1287 0
-1288 1287 0
629 -1287 1288 0
-629 1287 0
-629 -1288 0
623 624 625 626 627 628 629 0
-1290 1289 0
632 -1289 1290 0
-632 1289 0
-632 -1290 0
-1291 1290 0
633 -1290 1291 0
-633 1290 0
-633 -1291 0
-1292 1291 0
634 -1291 1292 0
-634 1291 0
-634 -1292 0
-1293 1292 0
635 -1292 1293 0
-635 1292 0
-635 -1293 0
-1294 1293 0
636 -1293 1294 0
-636 1293 0
-636 -1294 0
-1295 1294 0
637 -1294 1295 0
-637 1294 0
-637 -1295 0
-1296 1295 0
638 -1295 1296 0
-638 1295 0
-638 -1296 0
632 633 634 635 636 637 638 0
-1298 1297 0
641 -1297 1298 0
-641 1297 0
-641 -1298 0
-1299 1298 0
642 -1298 1299 0
-642 1298 0
-642 -1299 0
-1300 1299 0
643 -1299 1300 0
-643 1299 0
-643 -1300 0
-1301 1300 0
644 -1300 1301 0
-644 1300 0
-644 -1301 0
-1302 1301 0
645 -1301 1302 0
-645 1301 0
-645 -1302 0
-1303 1302 0
646 -1302 1303 0
-646 1302 0
-646 -1303 0
-1304 1303 0
647 -1303 1304 0
-647 1303 0
-647 -1304 0
641 642 643 644 645 646 647 0
-1306 1305 0
650 -1305 1306 0
-650 1305 0
-650 -1306 0
-1307 1306 0
651 -1306 1307 0
-651 1306 0
-651 -1307 0
-1308 1307 0
652 -1307 1308 0
-652 1307 0
-652 -1308 0
-1309 1308 0
653 -1308 1309 0
-653 1308 0
-653 -1309 0
-1310 1309 0
654 -1309 1310 0
-654 1309 0
-654 -1310 0
-1311 1310 0
655 -1310 1311 0
-655 1310 0
-655 -1311 0
-1312 1311 0
656 -1311 1312 0
-656 1311 0
-656 -1312 0
650 651 652 653 654 655 656 0
-1314 1313 0
659 -1313 1314 0
-659 1313 0
-659 -1314 0
-1315 1314 0
660 -1314 1315 0
-660 1314 0
-660 -1315 0
-1316 1315 0
661 -1315 1316 0
-661 1315 0
-661 -1316 0
-1317 1316 0
662 -1316 1317 0
-662 1316 0
-662 -1317 0
-1318 1317 0
663 -1317 1318 0
-663 1317 0
-663 -1318 0
-1319 1318 0
664 -1318 1319 0
-664 1318 0
-664 -1319 0
-1320 1319 0
665 -1319 1320 0
-665 1319 0
-665 -1320 0
659 660 661 662 663 664 665 0
-1322 1321 0
668 -1321 1322 0
-668 1321 0
-668 -1322 0
-1323 1322 0
669 -1322 1323 0
-669 1322 0
-669 -1323 0
-1324 1323 0
670 -1323 1324 0
-670 1323 0
-670 -1324 0
-1325 1324 0
671 -1324 1325 0
-671 1324 0
-671 -1325 0
-1326 1325 0
672 -1325 1326 0
-672 1325 0
-672 -1326 0
-1327 1326 0
673 -1326 1327 0
-673 1326 0
-673 -1327 0
-1328 1327 0
674 -1327 1328 0
-674 1327 0
-674 -1328 0
668 669 670 671 672 673 674 0
-1330 1329 0
677 -1329 1330 0
-677 1329 0
-677 -1330 0
-1331 1330 0
678 -1330 1331 0
-678 1330 0
-678 -1331 0
-1332 1331 0
679 -1331 1332 0
-679 1331 0
-679 -1332 0
-1333 1332 0
680 -1332 1333 0
-680 1332 0
-680 -1333 0
-1334 1333 0
681 -1333 1334 0
-681 1333 0
-681 -1334 0
-1335 1334 0
682 -1334 1335 0
-682 1334 0
-682 -1335 0
-1336 1335 0
683 -1335 1336 0
-683 1335 0
-683 -1336 0
677 678 679 680 681 682 683 0
-1338 1337 0
686 -1337 1338 0
-686 1337 0
-686 -1338 0
-1339 1338 0
687 -1338 1339 0
-687 1338 0
-687 -1339 0
-1340 1339 0
688 -1339 1340 0
-688 1339 0
-688 -1340 0
-1341 1340 0
689 -1340 1341 0
-689 1340 0
-689 -1341 0
-1342 1341 0
690 -1341 1342 0
-690 1341 0
-690 -1342 0
-1343 1342 0
691 -1342 1343 0
-691 1342 0
-691 -1343 0
-1344 1343 0
692 -1343 1344 0
-692 1343 0
-692 -1344 0
686 687 688 689 690 691 692 0
-1346 1345 0
695 -1345 1346 0
-695 1345 0
-695 -1346 0
-1347 1346 0
696 -1346 1347 0
-696 1346 0
-696 -1347 0
-1348 1347 0
697 -1347 1348 0
-697 1347 0
-697 -1348 0
-1349 1348 0
698 -1348 1349 0
-698 1348 0
-698 -1349 0
-1350 1349 0
699 -1349 1350 0
-699 1349 0
-699 -1350 0
-1351 1350 0
700 -1350 1351 0
-700 1350 0
-700 -1351 0
-1352 1351 0
701 -1351 1352 0
-701 1351 0
-701 -1352 0
695 696 697 698 699 700 701 0
-1354 1353 0
704 -1353 1354 0
-704 1353 0
-704 -1354 0
-1355 1354 0
705 -1354 1355 0
-705 1354 0
-705 -1355 0
-1356 1355 0
706 -1355 1356 0
-706 1355 0
-706 -1356 0
-1357 1356 0
707 -1356 1357 0
-707 1356 0
-707 -1357 0
-1358 1357 0
708 -1357 1358 0
-708 1357 0
-708 -1358 0
-1359 1358 0
709 -1358 1359 0
-709 1358 0
-709 -1359 0
-1360 1359 0
710 -1359 1360 0
-710 1359 0
-710 -1360 0
704 705 706 707 708 709 710 0
-1362 1361 0
713 -1361 1362 0
-713 1361 0
-713 -1362 0
-1363 1362 0
714 -1362 1363 0
-714 1362 0
-714 -1363 0
-1364 1363 0
715 -1363 1364 0
-715 1363 0
-715 -1364 0
-1365 1364 0
716 -1364 1365 0
-716 1364 0
-716 -1365 0
-1366 1365 0
717 -1365 1366 0
-717 1365 0
-717 -1366 0
-1367 1366 0
718 -1366 1367 0
-718 1366 0
-718 -1367 0
-1368 1367 0
719 -1367 1368 0
-719 1367 0
-719 -1368 0
713 714 715 716 717 718 719 0
-1370 1369 0
722 -1369 1370 0
-722 1369 0
-722 -1370 0
-1371 1370 0
723 -1370 1371 0
-723 1370 0
-723 -1371 0
-1372 1371 0
724 -1371 1372 0
-724 1371 0
-724 -1372 0
-1373 1372 0
725 -1372 1373 0
-725 1372 0
-725 -1373 0
-1374 1373 0
726 -1373 1374 0
-726 1373 0
-726 -1374 0
-1375 1374 0
727 -1374 1375 0
-727 1374 0
-727 -1375 0
-1376 1375 0
728 -1375 1376 0
-728 1375 0
-728 -1376 0
722 723 724 725 726 727 728 0
